MSW07
Position Depot: Random
Horizon for Depot: Small
Position of customers: Mixt
Distribution of the demand: Small
Width of time windows: Wide
Distribution of the service: Large

VEHICLE 
NUMBER 	 CAPACITY 
 6 	 	 119 
 
CUSTOMER
CUST NO. 	 XCOORD.  	 YCOORD. 	 DEMAND 	 READY TIME 	 DUE DATE 	 SERVICE TIME 
 0 	 	 214 	 	 520 	 	 0 	 	 0 	 	 1745 	 	 0 
  1 	 	 167 	 	 504 	 	 9 	 	 1229 	 	 1596 	 	 200 
  2 	 	 574 	 	 308 	 	 5 	 	 1266 	 	 1745 	 	 158 
  3 	 	 480 	 	 814 	 	 7 	 	 496 	 	 931 	 	 173 
  4 	 	 520 	 	 574 	 	 8 	 	 638 	 	 979 	 	 199 
  5 	 	 628 	 	 298 	 	 7 	 	 924 	 	 1223 	 	 149 
  6 	 	 23 	 	 696 	 	 8 	 	 325 	 	 528 	 	 100 
  7 	 	 17 	 	 405 	 	 5 	 	 367 	 	 777 	 	 194 
  8 	 	 554 	 	 284 	 	 7 	 	 1439 	 	 1744 	 	 128 
  9 	 	 498 	 	 871 	 	 8 	 	 153 	 	 496 	 	 103 
  10 	 	 661 	 	 283 	 	 9 	 	 729 	 	 984 	 	 199 
  11 	 	 144 	 	 507 	 	 9 	 	 337 	 	 705 	 	 146 
  12 	 	 532 	 	 206 	 	 5 	 	 1234 	 	 1687 	 	 159 
  13 	 	 605 	 	 349 	 	 5 	 	 729 	 	 1168 	 	 190 
  14 	 	 594 	 	 319 	 	 9 	 	 785 	 	 1272 	 	 200 
  15 	 	 469 	 	 787 	 	 6 	 	 1209 	 	 1653 	 	 181 
  16 	 	 5 	 	 641 	 	 9 	 	 1351 	 	 1745 	 	 190 
  17 	 	 522 	 	 613 	 	 6 	 	 475 	 	 879 	 	 114 
  18 	 	 116 	 	 410 	 	 10 	 	 341 	 	 790 	 	 150 
  19 	 	 113 	 	 525 	 	 6 	 	 -101 	 	 190 	 	 142 
  20 	 	 0 	 	 415 	 	 10 	 	 1342 	 	 1662 	 	 190 
  21 	 	 449 	 	 792 	 	 9 	 	 1506 	 	 1734 	 	 156 
  22 	 	 129 	 	 400 	 	 9 	 	 1337 	 	 1736 	 	 145 
  23 	 	 236 	 	 469 	 	 7 	 	 802 	 	 1220 	 	 153 
  24 	 	 185 	 	 522 	 	 6 	 	 1487 	 	 1745 	 	 103 
  25 	 	 40 	 	 463 	 	 10 	 	 956 	 	 1338 	 	 143 
  26 	 	 593 	 	 484 	 	 6 	 	 1333 	 	 1745 	 	 193 
  27 	 	 710 	 	 238 	 	 9 	 	 904 	 	 1292 	 	 140 
  28 	 	 153 	 	 494 	 	 6 	 	 903 	 	 1390 	 	 122 
  29 	 	 655 	 	 253 	 	 8 	 	 975 	 	 1376 	 	 123 
  30 	 	 533 	 	 585 	 	 10 	 	 348 	 	 745 	 	 189 
  31 	 	 61 	 	 409 	 	 5 	 	 1193 	 	 1566 	 	 143 
  32 	 	 570 	 	 884 	 	 5 	 	 1360 	 	 1665 	 	 103 
  33 	 	 100 	 	 686 	 	 10 	 	 963 	 	 1325 	 	 180 
  34 	 	 582 	 	 356 	 	 7 	 	 -32 	 	 443 	 	 118 
  35 	 	 481 	 	 321 	 	 8 	 	 1274 	 	 1745 	 	 105 
  36 	 	 406 	 	 806 	 	 6 	 	 169 	 	 378 	 	 197 
  37 	 	 427 	 	 700 	 	 5 	 	 700 	 	 1098 	 	 168 
  38 	 	 569 	 	 318 	 	 10 	 	 249 	 	 655 	 	 124 
  39 	 	 527 	 	 852 	 	 8 	 	 973 	 	 1321 	 	 187 
  40 	 	 543 	 	 312 	 	 8 	 	 648 	 	 870 	 	 192 
  41 	 	 457 	 	 798 	 	 8 	 	 580 	 	 880 	 	 114 
  42 	 	 430 	 	 788 	 	 6 	 	 157 	 	 378 	 	 106 
  43 	 	 642 	 	 310 	 	 6 	 	 920 	 	 1163 	 	 168 
  44 	 	 70 	 	 742 	 	 6 	 	 1260 	 	 1731 	 	 142 
  45 	 	 24 	 	 730 	 	 10 	 	 1365 	 	 1680 	 	 106 
  46 	 	 611 	 	 280 	 	 6 	 	 973 	 	 1466 	 	 102 
  47 	 	 66 	 	 428 	 	 10 	 	 509 	 	 980 	 	 168 
  48 	 	 617 	 	 294 	 	 6 	 	 52 	 	 508 	 	 124 
  49 	 	 106 	 	 558 	 	 5 	 	 305 	 	 609 	 	 178 
  50 	 	 394 	 	 751 	 	 9 	 	 336 	 	 811 	 	 168 
  51 	 	 599 	 	 765 	 	 7 	 	 294 	 	 745 	 	 186 
  52 	 	 726 	 	 391 	 	 5 	 	 872 	 	 1363 	 	 178 
  53 	 	 776 	 	 573 	 	 9 	 	 152 	 	 620 	 	 115 
  54 	 	 631 	 	 103 	 	 9 	 	 1349 	 	 1745 	 	 145 
  55 	 	 781 	 	 614 	 	 5 	 	 211 	 	 647 	 	 186 
  56 	 	 852 	 	 67 	 	 10 	 	 593 	 	 860 	 	 119 
  57 	 	 707 	 	 736 	 	 9 	 	 301 	 	 592 	 	 103 
  58 	 	 604 	 	 431 	 	 8 	 	 212 	 	 603 	 	 164 
  59 	 	 171 	 	 268 	 	 7 	 	 1325 	 	 1745 	 	 123 
  60 	 	 441 	 	 70 	 	 10 	 	 1222 	 	 1602 	 	 159 
  61 	 	 457 	 	 397 	 	 9 	 	 1050 	 	 1375 	 	 145 
  62 	 	 263 	 	 53 	 	 5 	 	 278 	 	 516 	 	 117 
  63 	 	 599 	 	 604 	 	 5 	 	 814 	 	 1304 	 	 156 
  64 	 	 385 	 	 21 	 	 9 	 	 909 	 	 1313 	 	 162 
  65 	 	 629 	 	 711 	 	 9 	 	 681 	 	 968 	 	 116 
  66 	 	 890 	 	 891 	 	 9 	 	 479 	 	 848 	 	 119 
  67 	 	 108 	 	 630 	 	 6 	 	 947 	 	 1408 	 	 166 
  68 	 	 405 	 	 993 	 	 7 	 	 249 	 	 561 	 	 199 
  69 	 	 846 	 	 342 	 	 7 	 	 308 	 	 722 	 	 180 
  70 	 	 742 	 	 861 	 	 10 	 	 909 	 	 1268 	 	 181 
  71 	 	 531 	 	 722 	 	 6 	 	 243 	 	 535 	 	 128 
  72 	 	 336 	 	 231 	 	 7 	 	 1165 	 	 1403 	 	 106 
  73 	 	 397 	 	 818 	 	 6 	 	 1196 	 	 1449 	 	 113 
  74 	 	 804 	 	 415 	 	 5 	 	 1455 	 	 1745 	 	 181 
  75 	 	 288 	 	 532 	 	 9 	 	 1155 	 	 1446 	 	 107 
  76 	 	 911 	 	 228 	 	 8 	 	 345 	 	 831 	 	 136 
  77 	 	 446 	 	 385 	 	 5 	 	 876 	 	 1331 	 	 125 
  78 	 	 633 	 	 780 	 	 7 	 	 43 	 	 542 	 	 108 
  79 	 	 248 	 	 621 	 	 10 	 	 991 	 	 1389 	 	 148 
  80 	 	 910 	 	 733 	 	 10 	 	 547 	 	 800 	 	 163 
  81 	 	 136 	 	 666 	 	 7 	 	 287 	 	 696 	 	 151 
  82 	 	 78 	 	 476 	 	 10 	 	 1331 	 	 1660 	 	 131 
  83 	 	 198 	 	 379 	 	 10 	 	 738 	 	 1217 	 	 151 
  84 	 	 360 	 	 88 	 	 5 	 	 56 	 	 515 	 	 144 
  85 	 	 110 	 	 121 	 	 6 	 	 563 	 	 988 	 	 177 
  86 	 	 244 	 	 392 	 	 7 	 	 1288 	 	 1533 	 	 156 
  87 	 	 415 	 	 719 	 	 8 	 	 610 	 	 961 	 	 166 
  88 	 	 489 	 	 91 	 	 9 	 	 1250 	 	 1686 	 	 116 
  89 	 	 11 	 	 816 	 	 5 	 	 1380 	 	 1745 	 	 126 
  90 	 	 124 	 	 398 	 	 5 	 	 1240 	 	 1708 	 	 107 
  91 	 	 546 	 	 270 	 	 9 	 	 805 	 	 1031 	 	 181 
  92 	 	 856 	 	 97 	 	 5 	 	 544 	 	 954 	 	 198 
  93 	 	 310 	 	 432 	 	 7 	 	 1211 	 	 1688 	 	 144 
  94 	 	 341 	 	 854 	 	 5 	 	 215 	 	 667 	 	 186 
  95 	 	 392 	 	 809 	 	 5 	 	 724 	 	 1077 	 	 190 
  96 	 	 91 	 	 850 	 	 5 	 	 1260 	 	 1475 	 	 186 
  97 	 	 947 	 	 412 	 	 10 	 	 513 	 	 815 	 	 195 
  98 	 	 608 	 	 34 	 	 6 	 	 203 	 	 688 	 	 192 
  99 	 	 173 	 	 201 	 	 9 	 	 1253 	 	 1745 	 	 114 
  100 	 	 741 	 	 474 	 	 5 	 	 1314 	 	 1745 	 	 169 
 